WARNING: for repeatability, setting FPU to use double precision
============================[ Problem Statistics ]=============================
|                                                                             |
|  Number of variables:            50                                         |
|  Number of clauses:             218                                         |
|  Parse time:                   0.00 s                                       |
|                                                                             |
============================[ Search Statistics ]==============================
| Conflicts |          ORIGINAL         |          LEARNT          | Progress |
|           |    Vars  Clauses Literals |    Limit  Clauses Lit/Cl |          |
===============================================================================
===============================================================================
restarts              : 1
conflicts             : 83             (54462 /sec)
decisions             : 103            (0.00 % random) (67585 /sec)
propagations          : 1301           (853675 /sec)
conflict literals     : 317            (13.15 % deleted)
Memory used           : 20.00 MB
CPU time              : 0.001524 s

UNSATISFIABLE
